25
2 1 13 
2 7 25 
2 10 55 
2 4 34 
2 46 16 
3 58 24 38 
2 49 9 
3 52 14 53 
2 19 28 
3 45 18 8 
2 43 47 
3 37 21 29 
2 31 22 
3 27 15 60 
3 30 26 42 
1 36 
3 50 32 48 
3 6 17 33 
3 39 51 20 
2 40 54 
3 2 12 5 
3 56 44 59 
1 41 
2 23 11 
3 3 35 57 
